
Gurobi 10.0.1 (linux64) logging started Sun Nov 26 15:57:42 2023

Set parameter LogFile to value "ArtificialInstance/ExperimentV2/S2T5K2/BaRo/gurobi91.txt"
Gurobi Optimizer version 10.0.1 build v10.0.1rc0 (linux64)

CPU model: AMD EPYC 7H12 64-Core Processor, instruction set [SSE2|AVX|AVX2]
Thread count: 128 physical cores, 128 logical processors, using up to 32 threads

Academic license 656792 - for non-commercial use only - registered to b.___@student.vu.nl
Optimize a model with 2682 rows, 4081 columns and 14082 nonzeros
Model fingerprint: 0xb4bfca09
Variable types: 1 continuous, 4080 integer (4080 binary)
Coefficient statistics:
  Matrix range     [1e+00, 4e+01]
  Objective range  [1e+00, 2e+01]
  Bounds range     [1e+00, 1e+00]
  RHS range        [1e+00, 1e+00]
Presolve time: 0.02s
Presolved: 2682 rows, 4081 columns, 14082 nonzeros
Variable types: 1 continuous, 4080 integer (4080 binary)
Found heuristic solution: objective 290.6096959

Root relaxation: objective 4.856391e+01, 2699 iterations, 0.09 seconds (0.08 work units)

    Nodes    |    Current Node    |     Objective Bounds      |     Work
 Expl Unexpl |  Obj  Depth IntInf | Incumbent    BestBd   Gap | It/Node Time

     0     0   48.56391    0  538  290.60970   48.56391  83.3%     -    0s
H    0     0                     117.2105480   48.56391  58.6%     -    0s
     0     0   55.78200    0  761  117.21055   55.78200  52.4%     -    0s
H    0     0                      85.0628466   55.78200  34.4%     -    0s
H    0     0                      84.4271426   55.78200  33.9%     -    0s
H    0     0                      81.8000331   59.67891  27.0%     -    0s
     0     0   59.67891    0  770   81.80003   59.67891  27.0%     -    0s
     0     0   59.67891    0  772   81.80003   59.67891  27.0%     -    0s
H    0     0                      78.4980535   59.67891  24.0%     -    0s
H    0     0                      68.4751709   59.67891  12.8%     -    0s
     0     0   61.67828    0  832   68.47517   61.67828  9.93%     -    0s
     0     0   61.67905    0  817   68.47517   61.67905  9.92%     -    0s
     0     0   61.97347    0  867   68.47517   61.97347  9.49%     -    1s
     0     0   61.97347    0  861   68.47517   61.97347  9.49%     -    1s
     0     0   62.58954    0  805   68.47517   62.58954  8.60%     -    1s
     0     0   62.69944    0  717   68.47517   62.69944  8.43%     -    1s
     0     0   62.69944    0  731   68.47517   62.69944  8.43%     -    1s
     0     0   63.18246    0  914   68.47517   63.18246  7.73%     -    1s
     0     0   63.31905    0  880   68.47517   63.31905  7.53%     -    1s
     0     0   63.31905    0  883   68.47517   63.31905  7.53%     -    1s
     0     0   63.89832    0  937   68.47517   63.89832  6.68%     -    1s
     0     0   63.96518    0  874   68.47517   63.96518  6.59%     -    1s
     0     0   63.96636    0  881   68.47517   63.96636  6.58%     -    1s
     0     0   63.97485    0  926   68.47517   63.97485  6.57%     -    1s
     0     0   64.02425    0  891   68.47517   64.02425  6.50%     -    1s
     0     0   64.03728    0  942   68.47517   64.03728  6.48%     -    1s
     0     0   64.03884    0  913   68.47517   64.03884  6.48%     -    1s
     0     0   64.14723    0  849   68.47517   64.14723  6.32%     -    1s
     0     0   64.16256    0  861   68.47517   64.16256  6.30%     -    1s
     0     0   64.17370    0  845   68.47517   64.17370  6.28%     -    1s
     0     0   64.17370    0  857   68.47517   64.17370  6.28%     -    1s
     0     0   64.18400    0  907   68.47517   64.18400  6.27%     -    1s
     0     0   64.18694    0  878   68.47517   64.18694  6.26%     -    1s
     0     0   64.21842    0  921   68.47517   64.21842  6.22%     -    1s
     0     0   64.21842    0  789   68.47517   64.21842  6.22%     -    2s
     0     0   64.22385    0  527   68.47517   64.22385  6.21%     -    2s
     0     0   64.22385    0  734   68.47517   64.22385  6.21%     -    2s
     0     0   64.22385    0  821   68.47517   64.22385  6.21%     -    2s
     0     0   64.22385    0  846   68.47517   64.22385  6.21%     -    3s
     0     0   64.22385    0  846   68.47517   64.22385  6.21%     -    3s
     0     0   64.33677    0  791   68.47517   64.33677  6.04%     -    3s
     0     0   64.33677    0  802   68.47517   64.33677  6.04%     -    3s
     0     0   64.41008    0  776   68.47517   64.41008  5.94%     -    3s
     0     0   64.43666    0  794   68.47517   64.43666  5.90%     -    3s
     0     0   64.43701    0  809   68.47517   64.43701  5.90%     -    3s
     0     0   64.61888    0  765   68.47517   64.61888  5.63%     -    3s
     0     0   64.69170    0  768   68.47517   64.69170  5.53%     -    3s
     0     0   64.70454    0  766   68.47517   64.70454  5.51%     -    3s
     0     0   64.70729    0  760   68.47517   64.70729  5.50%     -    3s
     0     0   64.75159    0  803   68.47517   64.75159  5.44%     -    3s
     0     0   64.78388    0  804   68.47517   64.78388  5.39%     -    3s
     0     0   64.78820    0  792   68.47517   64.78820  5.38%     -    3s
     0     0   64.79512    0  794   68.47517   64.79512  5.37%     -    3s
     0     0   64.79931    0  804   68.47517   64.79931  5.37%     -    3s
     0     0   64.82672    0  813   68.47517   64.82672  5.33%     -    3s
     0     0   64.82672    0  733   68.47517   64.82672  5.33%     -    3s
     0     2   64.82672    0  727   68.47517   64.82672  5.33%     -    4s

Cutting planes:
  Gomory: 7
  Zero half: 89
  RLT: 90

Explored 73 nodes (38557 simplex iterations) in 4.52 seconds (3.13 work units)
Thread count was 32 (of 128 available processors)

Solution count 7: 68.4752 78.4981 81.8 ... 290.61

Optimal solution found (tolerance 1.00e-04)
Best objective 6.847517086491e+01, best bound 6.847517086491e+01, gap 0.0000%
